Welcome to the CBC MILP Solver 
Version: 2.10.7 
Build Date: Feb 14 2022 

command line - cbc inputs/new_tr/order/triang9_0_down_left_input.lp sec 1800 solve solu solutions/new_tr/triang9_0_down_left_input.lp (default strategy 1)
seconds was changed from 1e+100 to 1800
Continuous objective value is 379.075 - 1.05 seconds
Cgl0002I 1201 variables fixed
Cgl0003I 0 fixed, 1 tightened bounds, 1047 strengthened rows, 0 substitutions
Cgl0003I 0 fixed, 0 tightened bounds, 203 strengthened rows, 0 substitutions
Cgl0003I 0 fixed, 0 tightened bounds, 12 strengthened rows, 0 substitutions
Cgl0003I 0 fixed, 0 tightened bounds, 6 strengthened rows, 0 substitutions
Cgl0004I processed model has 4310 rows, 1490 columns (1490 integer (1445 of which binary)) and 14111 elements
Cutoff increment increased from 1e-05 to 0.9999
Cbc0045I 1 integer variables out of 1490 objects (1490 integer) have cost of 1 - high priority
Cbc0045I branch on satisfied Y create fake objective Y random cost Y
Cbc0038I Initial state - 780 integers unsatisfied sum - 167.539
Cbc0038I Pass   1: (2.24 seconds) suminf.   89.97643 (576) obj. 440.74 iterations 1759
Cbc0038I Pass   2: (2.31 seconds) suminf.   84.05109 (551) obj. 456.709 iterations 239
Cbc0038I Pass   3: (2.38 seconds) suminf.   75.19944 (545) obj. 462.989 iterations 300
Cbc0038I Pass   4: (2.44 seconds) suminf.   72.65029 (560) obj. 458.562 iterations 219
Cbc0038I Pass   5: (2.48 seconds) suminf.   72.92051 (551) obj. 463.514 iterations 134
Cbc0038I Pass   6: (2.53 seconds) suminf.   66.75768 (539) obj. 465.818 iterations 167
Cbc0038I Pass   7: (2.59 seconds) suminf.   64.59650 (512) obj. 455.357 iterations 247
Cbc0038I Pass   8: (2.66 seconds) suminf.   62.72058 (505) obj. 461.406 iterations 276
Cbc0038I Pass   9: (2.71 seconds) suminf.   56.42947 (494) obj. 528.961 iterations 163
Cbc0038I Pass  10: (2.75 seconds) suminf.   56.73060 (483) obj. 492.773 iterations 155
Cbc0038I Pass  11: (2.82 seconds) suminf.   53.98526 (476) obj. 477.434 iterations 289
Cbc0038I Pass  12: (2.86 seconds) suminf.   52.18866 (462) obj. 477.648 iterations 143
Cbc0038I Pass  13: (2.87 seconds) suminf.   52.17908 (462) obj. 477.644 iterations 4
Cbc0038I Pass  14: (2.93 seconds) suminf.   48.62788 (454) obj. 477.037 iterations 211
Cbc0038I Pass  15: (2.94 seconds) suminf.   48.43172 (451) obj. 477.034 iterations 17
Cbc0038I Pass  16: (2.96 seconds) suminf.   49.18485 (462) obj. 476.458 iterations 94
Cbc0038I Pass  17: (2.98 seconds) suminf.   48.66835 (451) obj. 476.764 iterations 56
Cbc0038I Pass  18: (3.05 seconds) suminf.   53.37948 (440) obj. 479.077 iterations 287
Cbc0038I Pass  19: (3.09 seconds) suminf.   50.12240 (452) obj. 476.657 iterations 178
Cbc0038I Pass  20: (3.12 seconds) suminf.   49.34165 (447) obj. 476.581 iterations 87
Cbc0038I Pass  21: (3.19 seconds) suminf.   51.58080 (439) obj. 479.076 iterations 314
Cbc0038I Pass  22: (3.26 seconds) suminf.   46.93284 (452) obj. 476.961 iterations 270
Cbc0038I Pass  23: (3.27 seconds) suminf.   46.84815 (446) obj. 476.929 iterations 58
Cbc0038I Pass  24: (3.34 seconds) suminf.   45.79932 (448) obj. 476.95 iterations 260
Cbc0038I Pass  25: (3.40 seconds) suminf.   44.99609 (440) obj. 477.099 iterations 245
Cbc0038I Pass  26: (3.44 seconds) suminf.   44.65754 (444) obj. 477.014 iterations 123
Cbc0038I Pass  27: (3.49 seconds) suminf.   45.14766 (437) obj. 452.029 iterations 234
Cbc0038I Pass  28: (3.53 seconds) suminf.   44.33191 (441) obj. 449.008 iterations 123
Cbc0038I Pass  29: (3.57 seconds) suminf.   43.02769 (445) obj. 452.889 iterations 158
Cbc0038I Pass  30: (3.60 seconds) suminf.   43.02333 (437) obj. 452.702 iterations 115
Cbc0038I Pass  31: (3.63 seconds) suminf.   42.78187 (447) obj. 452.499 iterations 108
Cbc0038I Pass  32: (3.65 seconds) suminf.   43.10363 (437) obj. 452.701 iterations 62
Cbc0038I Pass  33: (3.69 seconds) suminf.   41.93004 (459) obj. 451.65 iterations 155
Cbc0038I Pass  34: (3.71 seconds) suminf.   41.81629 (436) obj. 452.113 iterations 64
Cbc0038I Pass  35: (3.78 seconds) suminf.   41.80215 (431) obj. 451.644 iterations 311
Cbc0038I Pass  36: (3.83 seconds) suminf.   42.89772 (411) obj. 451.868 iterations 167
Cbc0038I Pass  37: (3.84 seconds) suminf.   42.94913 (413) obj. 451.864 iterations 17
Cbc0038I Pass  38: (3.88 seconds) suminf.   44.04884 (414) obj. 453.555 iterations 157
Cbc0038I Pass  39: (3.91 seconds) suminf.   43.46397 (413) obj. 451.767 iterations 114
Cbc0038I Pass  40: (3.93 seconds) suminf.   43.05734 (419) obj. 453.281 iterations 66
Cbc0038I Pass  41: (3.99 seconds) suminf.   39.79448 (390) obj. 453.982 iterations 250
Cbc0038I Pass  42: (4.02 seconds) suminf.   39.29609 (393) obj. 462.756 iterations 137
Cbc0038I Pass  43: (4.06 seconds) suminf.   42.69286 (405) obj. 462.614 iterations 152
Cbc0038I Pass  44: (4.08 seconds) suminf.   42.74198 (410) obj. 463.442 iterations 69
Cbc0038I Pass  45: (4.17 seconds) suminf.   41.50824 (420) obj. 464.179 iterations 403
Cbc0038I Pass  46: (4.21 seconds) suminf.   40.39793 (443) obj. 463.426 iterations 152
Cbc0038I Pass  47: (4.27 seconds) suminf.   41.66173 (390) obj. 453.053 iterations 260
Cbc0038I Pass  48: (4.31 seconds) suminf.   38.53501 (399) obj. 453.377 iterations 125
Cbc0038I Pass  49: (4.37 seconds) suminf.   38.51309 (385) obj. 456.47 iterations 276
Cbc0038I Pass  50: (4.41 seconds) suminf.   36.31743 (383) obj. 455.296 iterations 149
Cbc0038I Pass  51: (4.45 seconds) suminf.   36.02594 (376) obj. 453.699 iterations 140
Cbc0038I Pass  52: (4.48 seconds) suminf.   35.68072 (393) obj. 454.716 iterations 141
Cbc0038I Pass  53: (4.53 seconds) suminf.   35.57448 (369) obj. 512.442 iterations 216
Cbc0038I Pass  54: (4.56 seconds) suminf.   33.41269 (368) obj. 512.469 iterations 126
Cbc0038I Pass  55: (4.57 seconds) suminf.   33.41269 (368) obj. 512.469 iterations 3
Cbc0038I Pass  56: (4.62 seconds) suminf.   33.18256 (360) obj. 512.396 iterations 209
Cbc0038I Pass  57: (4.64 seconds) suminf.   32.07338 (356) obj. 512.365 iterations 71
Cbc0038I Pass  58: (4.69 seconds) suminf.   36.12755 (365) obj. 512.451 iterations 236
Cbc0038I Pass  59: (4.73 seconds) suminf.   33.39183 (358) obj. 512.247 iterations 177
Cbc0038I Pass  60: (4.79 seconds) suminf.   31.61388 (337) obj. 512.128 iterations 250
Cbc0038I Pass  61: (4.81 seconds) suminf.   32.49946 (351) obj. 512.448 iterations 103
Cbc0038I Pass  62: (4.87 seconds) suminf.   33.03214 (339) obj. 512.575 iterations 282
Cbc0038I Pass  63: (4.91 seconds) suminf.   32.48532 (334) obj. 512.576 iterations 134
Cbc0038I Pass  64: (4.92 seconds) suminf.   32.04502 (332) obj. 512.571 iterations 47
Cbc0038I Pass  65: (4.98 seconds) suminf.   27.72488 (300) obj. 450.703 iterations 281
Cbc0038I Pass  66: (4.99 seconds) suminf.   26.94723 (309) obj. 450.746 iterations 48
Cbc0038I Pass  67: (5.01 seconds) suminf.   26.33087 (309) obj. 450.228 iterations 83
Cbc0038I Pass  68: (5.06 seconds) suminf.   27.20481 (268) obj. 446.496 iterations 271
Cbc0038I Pass  69: (5.08 seconds) suminf.   27.52685 (264) obj. 446.375 iterations 63
Cbc0038I Pass  70: (5.09 seconds) suminf.   27.09902 (263) obj. 446.368 iterations 25
Cbc0038I Pass  71: (5.13 seconds) suminf.   28.34507 (242) obj. 489.182 iterations 226
Cbc0038I Pass  72: (5.15 seconds) suminf.   26.29513 (247) obj. 489.607 iterations 106
Cbc0038I Pass  73: (5.16 seconds) suminf.   25.75396 (240) obj. 489.569 iterations 30
Cbc0038I Pass  74: (5.20 seconds) suminf.   27.08603 (242) obj. 488.08 iterations 169
Cbc0038I Pass  75: (5.21 seconds) suminf.   26.78085 (239) obj. 488.524 iterations 42
Cbc0038I Pass  76: (5.25 seconds) suminf.   24.35666 (226) obj. 475.404 iterations 208
Cbc0038I Pass  77: (5.26 seconds) suminf.   23.79364 (219) obj. 477.767 iterations 55
Cbc0038I Pass  78: (5.30 seconds) suminf.   23.30327 (216) obj. 479.402 iterations 176
Cbc0038I Pass  79: (5.31 seconds) suminf.   23.45365 (214) obj. 479.479 iterations 40
Cbc0038I Pass  80: (5.36 seconds) suminf.   27.04608 (195) obj. 459.837 iterations 230
Cbc0038I Pass  81: (5.38 seconds) suminf.   22.63626 (210) obj. 489.438 iterations 154
Cbc0038I Pass  82: (5.39 seconds) suminf.   22.75132 (217) obj. 489.531 iterations 13
Cbc0038I Pass  83: (5.40 seconds) suminf.   22.73249 (220) obj. 489.551 iterations 2
Cbc0038I Pass  84: (5.44 seconds) suminf.   21.53025 (183) obj. 472.91 iterations 243
Cbc0038I Pass  85: (5.45 seconds) suminf.   21.46989 (183) obj. 473.462 iterations 17
Cbc0038I Pass  86: (5.50 seconds) suminf.   13.52377 (184) obj. 479.029 iterations 292
Cbc0038I Pass  87: (5.51 seconds) suminf.   13.52030 (184) obj. 479.025 iterations 58
Cbc0038I Pass  88: (5.55 seconds) suminf.   16.85002 (171) obj. 472.942 iterations 216
Cbc0038I Pass  89: (5.57 seconds) suminf.   13.98218 (175) obj. 473.143 iterations 120
Cbc0038I Pass  90: (5.58 seconds) suminf.   13.66678 (177) obj. 473.225 iterations 34
Cbc0038I Pass  91: (5.62 seconds) suminf.   16.74384 (166) obj. 451.93 iterations 183
Cbc0038I Pass  92: (5.64 seconds) suminf.   12.46476 (184) obj. 452.031 iterations 147
Cbc0038I Pass  93: (5.69 seconds) suminf.    7.94911 (144) obj. 451.954 iterations 233
Cbc0038I Pass  94: (5.69 seconds) suminf.    7.74889 (143) obj. 451.94 iterations 22
Cbc0038I Pass  95: (5.74 seconds) suminf.    9.28745 (113) obj. 474.699 iterations 346
Cbc0038I Pass  96: (5.76 seconds) suminf.    8.82935 (111) obj. 476.69 iterations 76
Cbc0038I Pass  97: (5.79 seconds) suminf.    8.96412 (103) obj. 431.715 iterations 269
Cbc0038I Pass  98: (5.82 seconds) suminf.    7.19747 (110) obj. 432.443 iterations 148
Cbc0038I Pass  99: (5.83 seconds) suminf.   10.55570 (83) obj. 432.165 iterations 104
Cbc0038I Pass 100: (5.98 seconds) suminf.   63.24188 (359) obj. 581.877 iterations 949
Cbc0038I No solution found this major pass
Cbc0038I Before mini branch and bound, 343 integers at bound fixed and 0 continuous
Cbc0038I Full problem 4310 rows 1490 columns, reduced to 3244 rows 1059 columns - too large
Cbc0038I Mini branch and bound did not improve solution (6.33 seconds)
Cbc0038I After 6.33 seconds - Feasibility pump exiting - took 4.50 seconds
Cbc0031I 38 added rows had average density of 36.894737
Cbc0013I At root node, 38 cuts changed objective from 379.075 to 380 in 10 passes
Cbc0014I Cut generator 0 (Probing) - 129 row cuts average 2.0 elements, 0 column cuts (0 active)  in 0.106 seconds - new frequency is 1
Cbc0014I Cut generator 1 (Gomory) - 115 row cuts average 388.2 elements, 0 column cuts (0 active)  in 0.630 seconds - new frequency is 1
Cbc0014I Cut generator 2 (Knapsack) - 18 row cuts average 4.3 elements, 0 column cuts (0 active)  in 0.018 seconds - new frequency is 1
Cbc0014I Cut generator 3 (Clique) - 0 row cuts average 0.0 elements, 0 column cuts (0 active)  in 0.019 seconds - new frequency is -100
Cbc0014I Cut generator 4 (MixedIntegerRounding2) - 3 row cuts average 3.7 elements, 0 column cuts (0 active)  in 0.019 seconds - new frequency is -100
Cbc0014I Cut generator 5 (FlowCover) - 0 row cuts average 0.0 elements, 0 column cuts (0 active)  in 0.014 seconds - new frequency is -100
Cbc0014I Cut generator 6 (TwoMirCuts) - 112 row cuts average 14.5 elements, 0 column cuts (0 active)  in 0.235 seconds - new frequency is -100
Cbc0010I After 0 nodes, 1 on tree, 1e+50 best solution, best possible 380 (13.79 seconds)
Cbc0010I After 100 nodes, 20 on tree, 1e+50 best solution, best possible 380 (83.74 seconds)
Cbc0004I Integer solution of 380 found after 154373 iterations and 140 nodes (96.51 seconds)
Cbc0001I Search completed - best objective 380, took 154373 iterations and 140 nodes (96.51 seconds)
Cbc0032I Strong branching done 2158 times (165448 iterations), fathomed 6 nodes and fixed 116 variables
Cbc0035I Maximum depth 50, 0 variables fixed on reduced cost
Cuts at root node changed objective from 379.075 to 380
Probing was tried 39 times and created 2066 cuts of which 0 were active after adding rounds of cuts (0.199 seconds)
Gomory was tried 39 times and created 146 cuts of which 0 were active after adding rounds of cuts (0.805 seconds)
Knapsack was tried 39 times and created 122 cuts of which 0 were active after adding rounds of cuts (0.061 seconds)
Clique was tried 10 times and created 0 cuts of which 0 were active after adding rounds of cuts (0.019 seconds)
MixedIntegerRounding2 was tried 10 times and created 3 cuts of which 0 were active after adding rounds of cuts (0.019 seconds)
FlowCover was tried 10 times and created 0 cuts of which 0 were active after adding rounds of cuts (0.014 seconds)
TwoMirCuts was tried 10 times and created 112 cuts of which 0 were active after adding rounds of cuts (0.235 seconds)
ZeroHalf was tried 1 times and created 0 cuts of which 0 were active after adding rounds of cuts (0.051 seconds)
ImplicationCuts was tried 17 times and created 8 cuts of which 0 were active after adding rounds of cuts (0.003 seconds)

Result - Optimal solution found

Objective value:                380.00000000
Enumerated nodes:               140
Total iterations:               154373
Time (CPU seconds):             96.73
Time (Wallclock seconds):       97.00

Total time (CPU seconds):       96.76   (Wallclock seconds):       97.03

